Al12 O18
1.0
       14.4150810242         0.0000000000         0.0000000000
       -7.2075421744        12.4838254048         0.0000000000
        0.0000000000         0.0000000000        39.3487586975
   Al    O
  324  486
Direct
     0.111111112         0.222222224         0.271523565
     0.111111112         0.222222224         0.604856908
     0.111111112         0.222222224         0.938190222
     0.111111112         0.555555582         0.271523565
     0.111111112         0.555555582         0.604856908
     0.111111112         0.555555582         0.938190222
     0.111111112         0.888888896         0.271523565
     0.111111112         0.888888896         0.604856908
     0.111111112         0.888888896         0.938190222
     0.444444448         0.222222224         0.271523565
     0.444444448         0.222222224         0.604856908
     0.444444448         0.222222224         0.938190222
     0.444444448         0.555555582         0.271523565
     0.444444448         0.555555582         0.604856908
     0.444444448         0.555555582         0.938190222
     0.444444448         0.888888896         0.271523565
     0.444444448         0.888888896         0.604856908
     0.444444448         0.888888896         0.938190222
     0.777777791         0.222222224         0.271523565
     0.777777791         0.222222224         0.604856908
     0.777777791         0.222222224         0.938190222
     0.777777791         0.555555582         0.271523565
     0.777777791         0.555555582         0.604856908
     0.777777791         0.555555582         0.938190222
     0.777777791         0.888888896         0.271523565
     0.777777791         0.888888896         0.604856908
     0.777777791         0.888888896         0.938190222
     0.222222224         0.111111112         0.228476450
     0.222222224         0.111111112         0.561809778
     0.222222224         0.111111112         0.895143092
     0.222222224         0.444444448         0.228476450
     0.222222224         0.444444448         0.561809778
     0.222222224         0.444444448         0.895143092
     0.222222224         0.777777791         0.228476450
     0.222222224         0.777777791         0.561809778
     0.222222224         0.777777791         0.895143092
     0.555555582         0.111111112         0.228476450
     0.555555582         0.111111112         0.561809778
     0.555555582         0.111111112         0.895143092
     0.555555582         0.444444448         0.228476450
     0.555555582         0.444444448         0.561809778
     0.555555582         0.444444448         0.895143092
     0.555555582         0.777777791         0.228476450
     0.555555582         0.777777791         0.561809778
     0.555555582         0.777777791         0.895143092
     0.888888896         0.111111112         0.228476450
     0.888888896         0.111111112         0.561809778
     0.888888896         0.111111112         0.895143092
     0.888888896         0.444444448         0.228476450
     0.888888896         0.444444448         0.561809778
     0.888888896         0.444444448         0.895143092
     0.888888896         0.777777791         0.228476450
     0.888888896         0.777777791         0.561809778
     0.888888896         0.777777791         0.895143092
     0.000000000         0.000000000         0.215967998
     0.000000000         0.000000000         0.549301326
     0.000000000         0.000000000         0.882634640
     0.000000000         0.333333343         0.215967998
     0.000000000         0.333333343         0.549301326
     0.000000000         0.333333343         0.882634640
     0.000000000         0.666666687         0.215967998
     0.000000000         0.666666687         0.549301326
     0.000000000         0.666666687         0.882634640
     0.333333343         0.000000000         0.215967998
     0.333333343         0.000000000         0.549301326
     0.333333343         0.000000000         0.882634640
     0.333333343         0.333333343         0.215967998
     0.333333343         0.333333343         0.549301326
     0.333333343         0.333333343         0.882634640
     0.333333343         0.666666687         0.215967998
     0.333333343         0.666666687         0.549301326
     0.333333343         0.666666687         0.882634640
     0.666666687         0.000000000         0.215967998
     0.666666687         0.000000000         0.549301326
     0.666666687         0.000000000         0.882634640
     0.666666687         0.333333343         0.215967998
     0.666666687         0.333333343         0.549301326
     0.666666687         0.333333343         0.882634640
     0.666666687         0.666666687         0.215967998
     0.666666687         0.666666687         0.549301326
     0.666666687         0.666666687         0.882634640
     0.111111112         0.222222224         0.172920883
     0.111111112         0.222222224         0.506254196
     0.111111112         0.222222224         0.839587569
     0.111111112         0.555555582         0.172920883
     0.111111112         0.555555582         0.506254196
     0.111111112         0.555555582         0.839587569
     0.111111112         0.888888896         0.172920883
     0.111111112         0.888888896         0.506254196
     0.111111112         0.888888896         0.839587569
     0.444444448         0.222222224         0.172920883
     0.444444448         0.222222224         0.506254196
     0.444444448         0.222222224         0.839587569
     0.444444448         0.555555582         0.172920883
     0.444444448         0.555555582         0.506254196
     0.444444448         0.555555582         0.839587569
     0.444444448         0.888888896         0.172920883
     0.444444448         0.888888896         0.506254196
     0.444444448         0.888888896         0.839587569
     0.777777791         0.222222224         0.172920883
     0.777777791         0.222222224         0.506254196
     0.777777791         0.222222224         0.839587569
     0.777777791         0.555555582         0.172920883
     0.777777791         0.555555582         0.506254196
     0.777777791         0.555555582         0.839587569
     0.777777791         0.888888896         0.172920883
     0.777777791         0.888888896         0.506254196
     0.777777791         0.888888896         0.839587569
     0.000000000         0.000000000         0.049301330
     0.000000000         0.000000000         0.382634670
     0.000000000         0.000000000         0.715968013
     0.000000000         0.333333343         0.049301330
     0.000000000         0.333333343         0.382634670
     0.000000000         0.333333343         0.715968013
     0.000000000         0.666666687         0.049301330
     0.000000000         0.666666687         0.382634670
     0.000000000         0.666666687         0.715968013
     0.333333343         0.000000000         0.049301330
     0.333333343         0.000000000         0.382634670
     0.333333343         0.000000000         0.715968013
     0.333333343         0.333333343         0.049301330
     0.333333343         0.333333343         0.382634670
     0.333333343         0.333333343         0.715968013
     0.333333343         0.666666687         0.049301330
     0.333333343         0.666666687         0.382634670
     0.333333343         0.666666687         0.715968013
     0.666666687         0.000000000         0.049301330
     0.666666687         0.000000000         0.382634670
     0.666666687         0.000000000         0.715968013
     0.666666687         0.333333343         0.049301330
     0.666666687         0.333333343         0.382634670
     0.666666687         0.333333343         0.715968013
     0.666666687         0.666666687         0.049301330
     0.666666687         0.666666687         0.382634670
     0.666666687         0.666666687         0.715968013
     0.111111112         0.222222224         0.006254222
     0.111111112         0.222222224         0.339587569
     0.111111112         0.222222224         0.672920883
     0.111111112         0.555555582         0.006254222
     0.111111112         0.555555582         0.339587569
     0.111111112         0.555555582         0.672920883
     0.111111112         0.888888896         0.006254222
     0.111111112         0.888888896         0.339587569
     0.111111112         0.888888896         0.672920883
     0.444444448         0.222222224         0.006254222
     0.444444448         0.222222224         0.339587569
     0.444444448         0.222222224         0.672920883
     0.444444448         0.555555582         0.006254222
     0.444444448         0.555555582         0.339587569
     0.444444448         0.555555582         0.672920883
     0.444444448         0.888888896         0.006254222
     0.444444448         0.888888896         0.339587569
     0.444444448         0.888888896         0.672920883
     0.777777791         0.222222224         0.006254222
     0.777777791         0.222222224         0.339587569
     0.777777791         0.222222224         0.672920883
     0.777777791         0.555555582         0.006254222
     0.777777791         0.555555582         0.339587569
     0.777777791         0.555555582         0.672920883
     0.777777791         0.888888896         0.006254222
     0.777777791         0.888888896         0.339587569
     0.777777791         0.888888896         0.672920883
     0.222222224         0.111111112         0.327079117
     0.222222224         0.111111112         0.660412431
     0.222222224         0.111111112         0.993745804
     0.222222224         0.444444448         0.327079117
     0.222222224         0.444444448         0.660412431
     0.222222224         0.444444448         0.993745804
     0.222222224         0.777777791         0.327079117
     0.222222224         0.777777791         0.660412431
     0.222222224         0.777777791         0.993745804
     0.555555582         0.111111112         0.327079117
     0.555555582         0.111111112         0.660412431
     0.555555582         0.111111112         0.993745804
     0.555555582         0.444444448         0.327079117
     0.555555582         0.444444448         0.660412431
     0.555555582         0.444444448         0.993745804
     0.555555582         0.777777791         0.327079117
     0.555555582         0.777777791         0.660412431
     0.555555582         0.777777791         0.993745804
     0.888888896         0.111111112         0.327079117
     0.888888896         0.111111112         0.660412431
     0.888888896         0.111111112         0.993745804
     0.888888896         0.444444448         0.327079117
     0.888888896         0.444444448         0.660412431
     0.888888896         0.444444448         0.993745804
     0.888888896         0.777777791         0.327079117
     0.888888896         0.777777791         0.660412431
     0.888888896         0.777777791         0.993745804
     0.000000000         0.000000000         0.284032017
     0.000000000         0.000000000         0.617365360
     0.000000000         0.000000000         0.950698674
     0.000000000         0.333333343         0.284032017
     0.000000000         0.333333343         0.617365360
     0.000000000         0.333333343         0.950698674
     0.000000000         0.666666687         0.284032017
     0.000000000         0.666666687         0.617365360
     0.000000000         0.666666687         0.950698674
     0.333333343         0.000000000         0.284032017
     0.333333343         0.000000000         0.617365360
     0.333333343         0.000000000         0.950698674
     0.333333343         0.333333343         0.284032017
     0.333333343         0.333333343         0.617365360
     0.333333343         0.333333343         0.950698674
     0.333333343         0.666666687         0.284032017
     0.333333343         0.666666687         0.617365360
     0.333333343         0.666666687         0.950698674
     0.666666687         0.000000000         0.284032017
     0.666666687         0.000000000         0.617365360
     0.666666687         0.000000000         0.950698674
     0.666666687         0.333333343         0.284032017
     0.666666687         0.333333343         0.617365360
     0.666666687         0.333333343         0.950698674
     0.666666687         0.666666687         0.284032017
     0.666666687         0.666666687         0.617365360
     0.666666687         0.666666687         0.950698674
     0.222222224         0.111111112         0.160412446
     0.222222224         0.111111112         0.493745774
     0.222222224         0.111111112         0.827079117
     0.222222224         0.444444448         0.160412446
     0.222222224         0.444444448         0.493745774
     0.222222224         0.444444448         0.827079117
     0.222222224         0.777777791         0.160412446
     0.222222224         0.777777791         0.493745774
     0.222222224         0.777777791         0.827079117
     0.555555582         0.111111112         0.160412446
     0.555555582         0.111111112         0.493745774
     0.555555582         0.111111112         0.827079117
     0.555555582         0.444444448         0.160412446
     0.555555582         0.444444448         0.493745774
     0.555555582         0.444444448         0.827079117
     0.555555582         0.777777791         0.160412446
     0.555555582         0.777777791         0.493745774
     0.555555582         0.777777791         0.827079117
     0.888888896         0.111111112         0.160412446
     0.888888896         0.111111112         0.493745774
     0.888888896         0.111111112         0.827079117
     0.888888896         0.444444448         0.160412446
     0.888888896         0.444444448         0.493745774
     0.888888896         0.444444448         0.827079117
     0.888888896         0.777777791         0.160412446
     0.888888896         0.777777791         0.493745774
     0.888888896         0.777777791         0.827079117
     0.000000000         0.000000000         0.117365330
     0.000000000         0.000000000         0.450698674
     0.000000000         0.000000000         0.784031987
     0.000000000         0.333333343         0.117365330
     0.000000000         0.333333343         0.450698674
     0.000000000         0.333333343         0.784031987
     0.000000000         0.666666687         0.117365330
     0.000000000         0.666666687         0.450698674
     0.000000000         0.666666687         0.784031987
     0.333333343         0.000000000         0.117365330
     0.333333343         0.000000000         0.450698674
     0.333333343         0.000000000         0.784031987
     0.333333343         0.333333343         0.117365330
     0.333333343         0.333333343         0.450698674
     0.333333343         0.333333343         0.784031987
     0.333333343         0.666666687         0.117365330
     0.333333343         0.666666687         0.450698674
     0.333333343         0.666666687         0.784031987
     0.666666687         0.000000000         0.117365330
     0.666666687         0.000000000         0.450698674
     0.666666687         0.000000000         0.784031987
     0.666666687         0.333333343         0.117365330
     0.666666687         0.333333343         0.450698674
     0.666666687         0.333333343         0.784031987
     0.666666687         0.666666687         0.117365330
     0.666666687         0.666666687         0.450698674
     0.666666687         0.666666687         0.784031987
     0.111111112         0.222222224         0.104856886
     0.111111112         0.222222224         0.438190222
     0.111111112         0.222222224         0.771523535
     0.111111112         0.555555582         0.104856886
     0.111111112         0.555555582         0.438190222
     0.111111112         0.555555582         0.771523535
     0.111111112         0.888888896         0.104856886
     0.111111112         0.888888896         0.438190222
     0.111111112         0.888888896         0.771523535
     0.444444448         0.222222224         0.104856886
     0.444444448         0.222222224         0.438190222
     0.444444448         0.222222224         0.771523535
     0.444444448         0.555555582         0.104856886
     0.444444448         0.555555582         0.438190222
     0.444444448         0.555555582         0.771523535
     0.444444448         0.888888896         0.104856886
     0.444444448         0.888888896         0.438190222
     0.444444448         0.888888896         0.771523535
     0.777777791         0.222222224         0.104856886
     0.777777791         0.222222224         0.438190222
     0.777777791         0.222222224         0.771523535
     0.777777791         0.555555582         0.104856886
     0.777777791         0.555555582         0.438190222
     0.777777791         0.555555582         0.771523535
     0.777777791         0.888888896         0.104856886
     0.777777791         0.888888896         0.438190222
     0.777777791         0.888888896         0.771523535
     0.222222224         0.111111112         0.061809778
     0.222222224         0.111111112         0.395143121
     0.222222224         0.111111112         0.728476465
     0.222222224         0.444444448         0.061809778
     0.222222224         0.444444448         0.395143121
     0.222222224         0.444444448         0.728476465
     0.222222224         0.777777791         0.061809778
     0.222222224         0.777777791         0.395143121
     0.222222224         0.777777791         0.728476465
     0.555555582         0.111111112         0.061809778
     0.555555582         0.111111112         0.395143121
     0.555555582         0.111111112         0.728476465
     0.555555582         0.444444448         0.061809778
     0.555555582         0.444444448         0.395143121
     0.555555582         0.444444448         0.728476465
     0.555555582         0.777777791         0.061809778
     0.555555582         0.777777791         0.395143121
     0.555555582         0.777777791         0.728476465
     0.888888896         0.111111112         0.061809778
     0.888888896         0.111111112         0.395143121
     0.888888896         0.111111112         0.728476465
     0.888888896         0.444444448         0.061809778
     0.888888896         0.444444448         0.395143121
     0.888888896         0.444444448         0.728476465
     0.888888896         0.777777791         0.061809778
     0.888888896         0.777777791         0.395143121
     0.888888896         0.777777791         0.728476465
     0.120173723         0.111111112         0.194444433
     0.120173723         0.111111112         0.527777791
     0.120173723         0.111111112         0.861111104
     0.120173723         0.444444448         0.194444433
     0.120173723         0.444444448         0.527777791
     0.120173723         0.444444448         0.861111104
     0.120173723         0.777777791         0.194444433
     0.120173723         0.777777791         0.527777791
     0.120173723         0.777777791         0.861111104
     0.453507066         0.111111112         0.194444433
     0.453507066         0.111111112         0.527777791
     0.453507066         0.111111112         0.861111104
     0.453507066         0.444444448         0.194444433
     0.453507066         0.444444448         0.527777791
     0.453507066         0.444444448         0.861111104
     0.453507066         0.777777791         0.194444433
     0.453507066         0.777777791         0.527777791
     0.453507066         0.777777791         0.861111104
     0.786840379         0.111111112         0.194444433
     0.786840379         0.111111112         0.527777791
     0.786840379         0.111111112         0.861111104
     0.786840379         0.444444448         0.194444433
     0.786840379         0.444444448         0.527777791
     0.786840379         0.444444448         0.861111104
     0.786840379         0.777777791         0.194444433
     0.786840379         0.777777791         0.527777791
     0.786840379         0.777777791         0.861111104
     0.231284842         0.231284842         0.250000000
     0.231284842         0.231284842         0.583333313
     0.231284842         0.231284842         0.916666687
     0.231284842         0.564618170         0.250000000
     0.231284842         0.564618170         0.583333313
     0.231284842         0.564618170         0.916666687
     0.231284842         0.897951484         0.250000000
     0.231284842         0.897951484         0.583333313
     0.231284842         0.897951484         0.916666687
     0.564618170         0.231284842         0.250000000
     0.564618170         0.231284842         0.583333313
     0.564618170         0.231284842         0.916666687
     0.564618170         0.564618170         0.250000000
     0.564618170         0.564618170         0.583333313
     0.564618170         0.564618170         0.916666687
     0.564618170         0.897951484         0.250000000
     0.564618170         0.897951484         0.583333313
     0.564618170         0.897951484         0.916666687
     0.897951484         0.231284842         0.250000000
     0.897951484         0.231284842         0.583333313
     0.897951484         0.231284842         0.916666687
     0.897951484         0.564618170         0.250000000
     0.897951484         0.564618170         0.583333313
     0.897951484         0.564618170         0.916666687
     0.897951484         0.897951484         0.250000000
     0.897951484         0.897951484         0.583333313
     0.897951484         0.897951484         0.916666687
     0.324270725         0.213159621         0.194444433
     0.324270725         0.213159621         0.527777791
     0.324270725         0.213159621         0.861111104
     0.324270725         0.546492934         0.194444433
     0.324270725         0.546492934         0.527777791
     0.324270725         0.546492934         0.861111104
     0.324270725         0.879826307         0.194444433
     0.324270725         0.879826307         0.527777791
     0.324270725         0.879826307         0.861111104
     0.657604039         0.213159621         0.194444433
     0.657604039         0.213159621         0.527777791
     0.657604039         0.213159621         0.861111104
     0.657604039         0.546492934         0.194444433
     0.657604039         0.546492934         0.527777791
     0.657604039         0.546492934         0.861111104
     0.657604039         0.879826307         0.194444433
     0.657604039         0.879826307         0.527777791
     0.657604039         0.879826307         0.861111104
     0.990937412         0.213159621         0.194444433
     0.990937412         0.213159621         0.527777791
     0.990937412         0.213159621         0.861111104
     0.990937412         0.546492934         0.194444433
     0.990937412         0.546492934         0.527777791
     0.990937412         0.546492934         0.861111104
     0.990937412         0.879826307         0.194444433
     0.990937412         0.879826307         0.527777791
     0.990937412         0.879826307         0.861111104
     0.222222224         0.009062611         0.194444433
     0.222222224         0.009062611         0.527777791
     0.222222224         0.009062611         0.861111104
     0.222222224         0.342395931         0.194444433
     0.222222224         0.342395931         0.527777791
     0.222222224         0.342395931         0.861111104
     0.222222224         0.675729275         0.194444433
     0.222222224         0.675729275         0.527777791
     0.222222224         0.675729275         0.861111104
     0.555555582         0.009062611         0.194444433
     0.555555582         0.009062611         0.527777791
     0.555555582         0.009062611         0.861111104
     0.555555582         0.342395931         0.194444433
     0.555555582         0.342395931         0.527777791
     0.555555582         0.342395931         0.861111104
     0.555555582         0.675729275         0.194444433
     0.555555582         0.675729275         0.527777791
     0.555555582         0.675729275         0.861111104
     0.888888896         0.009062611         0.194444433
     0.888888896         0.009062611         0.527777791
     0.888888896         0.009062611         0.861111104
     0.888888896         0.342395931         0.194444433
     0.888888896         0.342395931         0.527777791
     0.888888896         0.342395931         0.861111104
     0.888888896         0.675729275         0.194444433
     0.888888896         0.675729275         0.527777791
     0.888888896         0.675729275         0.861111104
     0.000000000         0.102048494         0.250000000
     0.000000000         0.102048494         0.583333313
     0.000000000         0.102048494         0.916666687
     0.000000000         0.435381830         0.250000000
     0.000000000         0.435381830         0.583333313
     0.000000000         0.435381830         0.916666687
     0.000000000         0.768715143         0.250000000
     0.000000000         0.768715143         0.583333313
     0.000000000         0.768715143         0.916666687
     0.333333343         0.102048494         0.250000000
     0.333333343         0.102048494         0.583333313
     0.333333343         0.102048494         0.916666687
     0.333333343         0.435381830         0.250000000
     0.333333343         0.435381830         0.583333313
     0.333333343         0.435381830         0.916666687
     0.333333343         0.768715143         0.250000000
     0.333333343         0.768715143         0.583333313
     0.333333343         0.768715143         0.916666687
     0.666666687         0.102048494         0.250000000
     0.666666687         0.102048494         0.583333313
     0.666666687         0.102048494         0.916666687
     0.666666687         0.435381830         0.250000000
     0.666666687         0.435381830         0.583333313
     0.666666687         0.435381830         0.916666687
     0.666666687         0.768715143         0.250000000
     0.666666687         0.768715143         0.583333313
     0.666666687         0.768715143         0.916666687
     0.102048494         0.000000000         0.250000000
     0.102048494         0.000000000         0.583333313
     0.102048494         0.000000000         0.916666687
     0.102048494         0.333333343         0.250000000
     0.102048494         0.333333343         0.583333313
     0.102048494         0.333333343         0.916666687
     0.102048494         0.666666687         0.250000000
     0.102048494         0.666666687         0.583333313
     0.102048494         0.666666687         0.916666687
     0.435381830         0.000000000         0.250000000
     0.435381830         0.000000000         0.583333313
     0.435381830         0.000000000         0.916666687
     0.435381830         0.333333343         0.250000000
     0.435381830         0.333333343         0.583333313
     0.435381830         0.333333343         0.916666687
     0.435381830         0.666666687         0.250000000
     0.435381830         0.666666687         0.583333313
     0.435381830         0.666666687         0.916666687
     0.768715143         0.000000000         0.250000000
     0.768715143         0.000000000         0.583333313
     0.768715143         0.000000000         0.916666687
     0.768715143         0.333333343         0.250000000
     0.768715143         0.333333343         0.583333313
     0.768715143         0.333333343         0.916666687
     0.768715143         0.666666687         0.250000000
     0.768715143         0.666666687         0.583333313
     0.768715143         0.666666687         0.916666687
     0.009062611         0.222222224         0.305555552
     0.009062611         0.222222224         0.638888896
     0.009062611         0.222222224         0.972222209
     0.009062611         0.555555582         0.305555552
     0.009062611         0.555555582         0.638888896
     0.009062611         0.555555582         0.972222209
     0.009062611         0.888888896         0.305555552
     0.009062611         0.888888896         0.638888896
     0.009062611         0.888888896         0.972222209
     0.342395931         0.222222224         0.305555552
     0.342395931         0.222222224         0.638888896
     0.342395931         0.222222224         0.972222209
     0.342395931         0.555555582         0.305555552
     0.342395931         0.555555582         0.638888896
     0.342395931         0.555555582         0.972222209
     0.342395931         0.888888896         0.305555552
     0.342395931         0.888888896         0.638888896
     0.342395931         0.888888896         0.972222209
     0.675729275         0.222222224         0.305555552
     0.675729275         0.222222224         0.638888896
     0.675729275         0.222222224         0.972222209
     0.675729275         0.555555582         0.305555552
     0.675729275         0.555555582         0.638888896
     0.675729275         0.555555582         0.972222209
     0.675729275         0.888888896         0.305555552
     0.675729275         0.888888896         0.638888896
     0.675729275         0.888888896         0.972222209